#######################################
### Exact MIP solver for the HHCRSP ###
#######################################
-- Instance file: new-instances/HHCRSP_75_15_32_0.8_C_C.txt
-- Max threads: 4
-- Time limit: 999999 seconds
-- Use initial solution: No
Trivial flow violations prevented generating 19315 variables.
Model exported.
Version identifier: 20.1.0.0 | 2020-11-10 | 9bedb6d68
CPXPARAM_Threads                                 4
CPXPARAM_TimeLimit                               999999
Parallel mode: deterministic, using up to 4 threads for concurrent optimization:
 * Starting dual Simplex on 1 thread...
 * Starting Barrier on 3 threads...
Tried aggregator 1 time.
LP Presolve eliminated 2838 rows and 616 columns.
Reduced LP has 19468 rows, 18732 columns, and 188347 nonzeros.
Presolve time = 0.09 sec. (52.16 ticks)
Symmetry aggregator did 12382 additional substitutions.

Iteration log . . .
Iteration:     1   Dual objective     =             0.000000
Iteration:   390   Dual objective     =           128.000000

Dual crossover.
  Dual:  Fixing 171 variables.
      170 DMoves:  Infeasibility  8.85958075e-14  Objective  1.28336320e+02
        0 DMoves:  Infeasibility  3.99125877e-14  Objective  1.28336320e+02
  Dual:  Pushed 5, exchanged 166.
  Primal:  Fixing 45 variables.
       44 PMoves:  Infeasibility  0.00000000e+00  Objective  1.28336320e+02
        0 PMoves:  Infeasibility  0.00000000e+00  Objective  1.28336320e+02
  Primal:  Pushed 12, exchanged 33.

Dual simplex solved model.


Solution status from MIP model:
-- Processing time: 0.167 sec.
-- Memory used: 81.9404 MB
-- Best bound: inf
-- Obj value: 128.336
-- Gap: inf%
-- Total distance: 385.009
-- Total tardiness: 0
-- Largest tardiness: 0
